[1, 244, 3, 4, 5, 9, 7, 7, 8, 11, 11, 12, 13, 15, 14, 16, 17, 18, 19, 15, 19, 14, 28, 22, 25, 27, 26, 28, 29, 33, 33, 32, 32, 36, 35, 36, 37, 38, 39, 39, 41, 42, 43, 44, 45, 46, 47, 50, 49, 48, 51, 52, 49, 47, 59, 58, 61, 60, 61, 58, 59, 64, 59, 50, 85, 67, 70, 68, 69, 66, 71, 72, 73, 74, 75, 76, 77, 78, 79, 80, 82, 82, 83, 83, 87, 85, 87, 165, 187, 139, 94, 93, 91, 92, 122, 153, 130, 164, 91, 137, 182, 95, 104, 103, 105, 105, 104, 105, 104, 202, 196, 113, 114, 113, 116, 114, 117, 116, 119, 121, 120, 219, 185, 124, 139, 127, 127, 128, 131, 130, 129, 164, 141, 130, 166, 127, 148, 167, 151, 143, 142, 143, 142, 144, 145, 148, 149, 146, 147, 145, 143, 147, 129, 161, 165, 158, 157, 160, 156, 159, 134, 154, 149, 140, 152, 158, 128, 131, 138, 157, 159, 143, 134, 146, 115, 224, 177, 180, 179, 181, 180, 204, 143, 206, 186, 185, 98, 205, 191, 192, 191, 190, 192, 194, 195, 166, 199, 198, 199, 200, 201, 202, 200, 204, 205, 205, 205, 220, 219, 220, 227, 214, 212, 213, 215, 215, 217, 217, 209, 212, 210, 218, 217, 214, 226, 223, 216, 228, 238, 239, 238, 232, 233, 234, 235, 236, 237, 238, 239, 240, 245, 244, 243, 242, 241, 245, 246, 247, 249, 249, 251, 250, 249, 257, 255, 255, 254, 259, 258, 261, 260, 254, 272, 265, 276, 267, 266, 277, 266, 275, 274, 264, 270, 267, 271, 268, 273, 278, 275, 82]
[59, 94, 97, 121, 133, 133, 138, 138, 155, 160, 165, 165, 181, 195, 218, 218, 225, 226, 253, 253]
